Final structure
  1.0
    26.52 0.0 0.0
    0.0 22.482459 0.0
    0.0 0.0 15.0
   C  H
   6  6
Cartesian
  12.567327273670202 10.041485144980081 7.5
  12.567327273670207 12.440973855019918 7.5
  13.952672726329802 10.041485144980083 7.5
  13.952672726329795 12.440973855019918 7.5
  11.874654547339914 11.241229499999996 7.5
  14.645345452660087 11.241229499999994 7.5
  12.022266291541435 9.097411830709449 7.5
  12.022266291541433 13.385047169290547 7.5
  14.497733708458569 9.09741183070945 7.5
  14.497733708458567 13.385047169290548 7.5
  10.784532583082106 11.241229499999998 7.5
  15.735467416917898 11.241229499999998 7.5
